p cnf 14 21
-14 13 -5 0
-14 11 -7 0
14 -10 -3 0
-14 8 5 0
-14 -4 -1 0
-14 -3 1 0
-13 -12 6 0
-13 -11 9 0
-13 11 -3 0
-13 -5 -2 0
11 10 -4 0
-11 -10 3 0
-11 -7 -6 0
-11 7 3 0
11 3 -2 0
10 9 6 0
-10 -8 -3 0
-6 4 -2 0
-6 -3 2 0
-5 -4 -3 0
-5 4 -2 0
